
Gurobi 7.0.1 (win64, Python) logging started 04/24/17 12:14:25


Gurobi 7.0.1 (win64, Python) logging started 04/24/17 12:16:43


Gurobi 7.0.1 (win64, Python) logging started 04/24/17 12:17:51


Gurobi 7.0.1 (win64, Python) logging started 04/24/17 12:18:59


Gurobi 7.0.1 (win64, Python) logging started 04/24/17 13:50:03


Gurobi 7.0.1 (win64, Python) logging started 04/24/17 13:51:18


Gurobi 7.0.1 (win64, Python) logging started 04/24/17 13:52:06


Gurobi 7.0.1 (win64, Python) logging started 04/24/17 13:56:03


Gurobi 7.0.1 (win64, Python) logging started 04/24/17 13:56:43


Gurobi 7.0.1 (win64, Python) logging started 04/24/17 13:58:47


Gurobi 7.0.1 (win64, Python) logging started 04/24/17 14:01:03


Gurobi 7.0.1 (win64, Python) logging started 04/24/17 14:05:50


Gurobi 7.0.1 (win64, Python) logging started 04/24/17 14:06:47


Gurobi 7.0.1 (win64, Python) logging started 04/24/17 14:07:20


Gurobi 7.0.1 (win64, Python) logging started 04/24/17 14:28:24


Gurobi 7.0.1 (win64, Python) logging started 04/24/17 15:09:51


Gurobi 7.0.1 (win64, Python) logging started 04/24/17 15:52:17


Gurobi 7.0.1 (win64, Python) logging started 04/24/17 15:53:39


Gurobi 7.0.1 (win64, Python) logging started 04/24/17 15:54:41


Gurobi 7.0.1 (win64, Python) logging started 04/24/17 15:55:28


Gurobi 7.0.1 (win64, Python) logging started 04/24/17 15:56:11


Gurobi 7.0.1 (win64, Python) logging started 04/24/17 15:57:22


Gurobi 7.0.1 (win64, Python) logging started 04/24/17 15:58:25


Gurobi 7.0.1 (win64, Python) logging started 04/24/17 16:01:30


Gurobi 7.0.1 (win64, Python) logging started 04/24/17 16:03:39


Gurobi 7.0.1 (win64, Python) logging started 04/24/17 16:04:29


Gurobi 7.0.1 (win64, Python) logging started 04/24/17 16:06:39


Gurobi 7.0.1 (win64, Python) logging started 04/24/17 16:07:11


Gurobi 7.0.1 (win64, Python) logging started 04/24/17 16:07:29


Gurobi 7.0.1 (win64, Python) logging started 04/24/17 17:10:27


Gurobi 7.0.1 (win64, Python) logging started 04/24/17 17:14:05


Gurobi 7.0.1 (win64, Python) logging started 04/24/17 17:20:36


Gurobi 7.0.1 (win64, Python) logging started 04/24/17 17:23:16


Gurobi 7.0.1 (win64, Python) logging started 04/24/17 17:25:49


Gurobi 7.0.1 (win64, Python) logging started 04/24/17 17:26:48


Gurobi 7.0.1 (win64, Python) logging started 04/24/17 17:27:33


Gurobi 7.0.1 (win64, Python) logging started 04/24/17 17:29:20


Gurobi 7.0.1 (win64, Python) logging started 04/24/17 17:30:38


Gurobi 7.0.1 (win64, Python) logging started 04/24/17 17:31:13


Gurobi 7.0.1 (win64, Python) logging started 04/24/17 17:32:31


Gurobi 7.0.1 (win64, Python) logging started 04/24/17 17:35:48


Gurobi 7.0.1 (win64, Python) logging started 04/24/17 17:38:20


Gurobi 7.0.1 (win64, Python) logging started 04/24/17 18:21:13


Gurobi 7.0.1 (win64, Python) logging started 04/24/17 18:23:58


Gurobi 7.0.1 (win64, Python) logging started 04/24/17 18:35:21


Gurobi 7.0.1 (win64, Python) logging started 04/24/17 18:36:28


Gurobi 7.0.1 (win64, Python) logging started 04/24/17 18:37:19


Gurobi 7.0.2 (win64, Python) logging started 04/30/17 21:42:23


Gurobi 7.0.2 (win64, Python) logging started 05/01/17 09:25:04


Gurobi 7.0.2 (win64, Python) logging started 05/01/17 09:28:17


Gurobi 7.0.2 (win64, Python) logging started 05/01/17 09:30:27


Gurobi 7.0.2 (win64, Python) logging started 05/01/17 09:32:08


Gurobi 7.0.2 (win64, Python) logging started 05/01/17 09:34:58


Gurobi 7.0.2 (win64, Python) logging started 05/01/17 09:35:52


Gurobi 7.0.2 (win64, Python) logging started 05/01/17 09:36:54


Gurobi 7.0.2 (win64, Python) logging started 05/01/17 09:37:28


Gurobi 7.0.2 (win64, Python) logging started 05/01/17 09:41:18


Gurobi 7.0.2 (win64, Python) logging started 05/01/17 09:42:46


Gurobi 7.0.2 (win64, Python) logging started 05/01/17 09:43:14


Gurobi 7.0.2 (win64, Python) logging started 05/01/17 09:45:46


Gurobi 7.0.2 (win64, Python) logging started 05/01/17 09:46:54


Gurobi 7.0.2 (win64, Python) logging started 05/01/17 09:47:27


Gurobi 7.0.2 (win64, Python) logging started 05/01/17 09:48:33


Gurobi 7.0.2 (win64, Python) logging started 05/01/17 09:49:08


Gurobi 7.0.2 (win64, Python) logging started 05/01/17 09:55:49

